(declare-fun v2 () (_ BitVec 14))
(declare-fun v7 ()Bool          )
(declare-fun a60 () (Array (_ BitVec 15) (_ BitVec 11)))
(assert
(let (($e13 false    ))
(let (($e24 (_ bv0 3)))
(let (($e27 (_ bv8191 13)))
(let (($e35 (_ bv0 14)))
(let (($e38 (_ bv16383 14)))
(let (($e175                    $e13     ))
(let (($e187                    v7 ))
(let (($e190                     $e187  ))
(let (($e191               $e190                ))
(let (($e192        $e191       ))
(let (($e193                             $e192  ))
(let (($e194             $e193           ))
(let (($e210                    $e13     ))
(let (($e229                    $e38      ))
(let (($e230 (concat $e229 $e175)))
(let (($e238        a60             ))
(let (($e239 (select $e238 $e230)))
(let (($e307 (concat $e35 $e210)))
(let (($e316        a60             ))
(let (($e317 (select $e316 $e307)))
(let (($e671 (concat $e24 $e239)))
(let (($e672 (bvand $e671 v2)))
(let (($e828                    $e27      ))
(let (($e829 (concat $e828 $e194)))
(let (($e830 (bvand $e829 $e672)))
(let (($e831 (   extract      $e317)))
(let (($e832              $e831          ))
(let (($e833             $e832 ))
             (ite        $e833  $e672 $e830)
                                                                                                                                                                                                                                                                                                                                                                                                                                                                                                                                                                                                                                                                                                                                                                                                                                                                                                                                                                                                                                                                                                                                                                                                                                                                                                                                                                                                                                                                                                                                                                                                                                                                                                                                                                                                                                                                                                                                                                                                                                                                                                                                                                                                                                                                                                                                                                                                                                                                                                                                                                                                                                                                                                                                                                                                                                                                                                                                                                                                                                                                                                                                                                                                                                                                                                                                                                                                                                                                                                                                                                                                                                                                                                                                                                                                                                             ))))))                                                                                                                                                           ))                                                                                                                                                                                                                                                                                                                                                                 ))        )                                                                   ))       ))                  )               )))))  )           )                                                                                                                         )  )       )  )          )            )
